(set-info :source |printed by MathSAT|)
(declare-fun call_synapse.ite9.next () Int)
(declare-fun call_synapse.ite12.next () Int)
(declare-fun call_synapse.flby () Int)
(declare-fun call_synapse.ite6 () Int)
(declare-fun call_synapse.garde_s3.next () Bool)
(declare-fun mem_init_s () Int)
(declare-fun param_e_s2 () Bool)
(declare-fun call_synapse.ite11 () Int)
(declare-fun param_e_s1.next () Bool)
(declare-fun invalid_s () Int)
(declare-fun call_synapse.ite10 () Int)
(declare-fun call_synapse.ite18 () Int)
(declare-fun call_Sofar.flby.next () Bool)
(declare-fun valid_s () Int)
(declare-fun call_synapse.flby3 () Int)
(declare-fun param_init_invalid_s.next () Int)
(declare-fun call_Sofar.Sofar () Bool)
(declare-fun call_synapse.ite17 () Int)
(declare-fun call_synapse.ite7 () Int)
(declare-fun call_synapse.dirty_s () Int)
(declare-fun call_synapse.mem_init_s.next () Int)
(declare-fun call_synapse.ite.next () Int)
(declare-fun dirty_s () Int)
(declare-fun call_synapse.ite3.next () Int)
(declare-fun call_synapse.ite14 () Int)
(declare-fun call_First.First () Int)
(declare-fun call_Sofar.flby () Bool)
(declare-fun call_synapse.ite7.next () Int)
(declare-fun call_synapse.ite13 () Int)
(declare-fun invalid_s.next () Int)
(declare-fun call_synapse.valid_s.next () Int)
(declare-fun call_synapse.ite13.next () Int)
(declare-fun call_synapse.ite4 () Int)
(declare-fun call_synapse.mem_init_s () Int)
(declare-fun call_synapse.ite4.next () Int)
(declare-fun call_synapse.ite2.next () Int)
(declare-fun _OK_ () Bool)
(declare-fun call_Sofar.Sofar.next () Bool)
(declare-fun call_synapse.ite10.next () Int)
(declare-fun call_synapse.ite11.next () Int)
(declare-fun call_First.flby.next () Int)
(declare-fun call_synapse.ite16 () Int)
(declare-fun call_synapse.flby3.next () Int)
(declare-fun _OK_.next () Bool)
(declare-fun env.next () Bool)
(declare-fun param_e_s3 () Bool)
(declare-fun call_synapse.ite5.next () Int)
(declare-fun call_excludes3.excludes.next () Bool)
(declare-fun call_synapse.flby.next () Int)
(declare-fun call_synapse.ite17.next () Int)
(declare-fun call_synapse.flby4 () Int)
(declare-fun flby.next () Bool)
(declare-fun param_e_s3.next () Bool)
(declare-fun call_synapse.garde_s2.next () Bool)
(declare-fun valid_s.next () Int)
(declare-fun call_synapse.ite15.next () Int)
(declare-fun call_synapse.flby2.next () Int)
(declare-fun env () Bool)
(declare-fun param_e_s1 () Bool)
(declare-fun call_synapse.ite14.next () Int)
(declare-fun call_synapse.ite () Int)
(declare-fun call_synapse.ite8.next () Int)
(declare-fun call_synapse.garde_s1.next () Bool)
(declare-fun call_synapse.dirty_s.next () Int)
(declare-fun mem_init_s.next () Int)
(declare-fun call_synapse.ite8 () Int)
(declare-fun call_First.flby () Int)
(declare-fun call_synapse.ite6.next () Int)
(declare-fun param_e_s2.next () Bool)
(declare-fun call_synapse.flby4.next () Int)
(declare-fun dirty_s.next () Int)
(declare-fun call_synapse.ite16.next () Int)
(declare-fun call_synapse.invalid_s.next () Int)
(declare-fun call_synapse.ite5 () Int)
(declare-fun call_First.First.next () Int)
(declare-fun call_synapse.ite18.next () Int)
(declare-fun call_synapse.ite2 () Int)
(declare-fun call_synapse.invalid_s () Int)
(declare-fun call_synapse.valid_s () Int)
(declare-fun call_excludes3.excludes () Bool)
(declare-fun call_synapse.flby2 () Int)
(declare-fun flby () Bool)
(declare-fun call_synapse.ite12 () Int)
(define-fun .def_911 () Bool (= call_First.flby.next call_First.First.next))
(define-fun .def_909 () Bool (= call_Sofar.flby.next call_Sofar.Sofar.next))
(define-fun .def_904 () Bool (and param_e_s3.next param_e_s2.next))
(define-fun .def_901 () Bool (and param_e_s1.next param_e_s2.next))
(define-fun .def_902 () Bool (and param_e_s1.next .def_901))
(define-fun .def_903 () Bool (and param_e_s3.next .def_902))
(define-fun .def_905 () Bool (or .def_903 .def_904))
(define-fun .def_906 () Bool (not .def_905))
(define-fun .def_907 () Bool (= call_excludes3.excludes.next .def_906))
(define-fun .def_899 () Bool (= call_synapse.flby.next call_synapse.mem_init_s.next))
(define-fun .def_897 () Bool (= call_synapse.flby4.next call_synapse.dirty_s.next))
(define-fun .def_895 () Bool (= call_synapse.flby3.next call_synapse.valid_s.next))
(define-fun .def_893 () Bool (= call_synapse.flby2.next call_synapse.invalid_s.next))
(define-fun .def_889 () Bool (= call_synapse.ite16.next call_synapse.ite17.next))
(define-fun .def_890 () Bool (or param_e_s2.next .def_889))
(define-fun .def_886 () Bool (= call_synapse.ite14.next call_synapse.ite17.next))
(define-fun .def_877 () Bool (not param_e_s2.next))
(define-fun .def_887 () Bool (or .def_877 .def_886))
(define-fun .def_883 () Bool (= call_synapse.ite10.next call_synapse.ite11.next))
(define-fun .def_884 () Bool (or param_e_s2.next .def_883))
(define-fun .def_880 () Bool (= call_synapse.ite8.next call_synapse.ite11.next))
(define-fun .def_881 () Bool (or .def_877 .def_880))
(define-fun .def_876 () Bool (= call_synapse.ite2.next call_synapse.ite5.next))
(define-fun .def_878 () Bool (or .def_876 .def_877))
(define-fun .def_873 () Bool (= call_synapse.ite4.next call_synapse.ite5.next))
(define-fun .def_875 () Bool (or .def_873 param_e_s2.next))
(define-fun .def_879 () Bool (and .def_875 .def_878))
(define-fun .def_882 () Bool (and .def_879 .def_881))
(define-fun .def_885 () Bool (and .def_882 .def_884))
(define-fun .def_888 () Bool (and .def_885 .def_887))
(define-fun .def_891 () Bool (and .def_888 .def_890))
(define-fun .def_869 () Bool (= call_synapse.ite18.next call_synapse.ite17.next))
(define-fun .def_870 () Bool (or param_e_s1.next .def_869))
(define-fun .def_865 () Bool (= call_synapse.ite13.next call_synapse.ite18.next))
(define-fun .def_855 () Bool (not param_e_s1.next))
(define-fun .def_866 () Bool (or .def_855 .def_865))
(define-fun .def_862 () Bool (= call_synapse.ite12.next call_synapse.ite11.next))
(define-fun .def_863 () Bool (or param_e_s1.next .def_862))
(define-fun .def_858 () Bool (= call_synapse.ite7.next call_synapse.ite12.next))
(define-fun .def_859 () Bool (or .def_855 .def_858))
(define-fun .def_854 () Bool (= call_synapse.ite.next call_synapse.ite6.next))
(define-fun .def_856 () Bool (or .def_854 .def_855))
(define-fun .def_851 () Bool (= call_synapse.ite6.next call_synapse.ite5.next))
(define-fun .def_853 () Bool (or .def_851 param_e_s1.next))
(define-fun .def_857 () Bool (and .def_853 .def_856))
(define-fun .def_860 () Bool (and .def_857 .def_859))
(define-fun .def_864 () Bool (and .def_860 .def_863))
(define-fun .def_867 () Bool (and .def_864 .def_866))
(define-fun .def_871 () Bool (and .def_867 .def_870))
(define-fun .def_848 () Bool (= env.next call_Sofar.Sofar.next))
(define-fun .def_845 () Bool (= mem_init_s.next call_synapse.mem_init_s.next))
(define-fun .def_841 () Bool (= dirty_s.next call_synapse.dirty_s.next))
(define-fun .def_838 () Bool (= valid_s.next call_synapse.valid_s.next))
(define-fun .def_835 () Bool (= invalid_s.next call_synapse.invalid_s.next))
(define-fun .def_825 () Int (* (- 1) call_First.First.next))
(define-fun .def_826 () Int (+ dirty_s.next .def_825))
(define-fun .def_827 () Int (+ valid_s.next .def_826))
(define-fun .def_828 () Int (+ invalid_s.next .def_827))
(define-fun .def_829 () Bool (= .def_828 0))
(define-fun .def_820 () Bool (<= 2 dirty_s.next))
(define-fun .def_821 () Bool (not .def_820))
(define-fun .def_822 () Bool (and flby.next .def_821))
(define-fun .def_830 () Bool (and .def_822 .def_829))
(define-fun .def_817 () Bool (<= 1 valid_s.next))
(define-fun .def_818 () Bool (not .def_817))
(define-fun .def_815 () Bool (<= 1 dirty_s.next))
(define-fun .def_816 () Bool (not .def_815))
(define-fun .def_819 () Bool (or .def_816 .def_818))
(define-fun .def_831 () Bool (and .def_819 .def_830))
(define-fun .def_814 () Bool (not env.next))
(define-fun .def_832 () Bool (or .def_814 .def_831))
(define-fun .def_833 () Bool (= _OK_.next .def_832))
(define-fun .def_836 () Bool (and .def_833 .def_835))
(define-fun .def_839 () Bool (and .def_836 .def_838))
(define-fun .def_842 () Bool (and .def_839 .def_841))
(define-fun .def_846 () Bool (and .def_842 .def_845))
(define-fun .def_849 () Bool (and .def_846 .def_848))
(define-fun .def_872 () Bool (and .def_849 .def_871))
(define-fun .def_892 () Bool (and .def_872 .def_891))
(define-fun .def_894 () Bool (and .def_892 .def_893))
(define-fun .def_896 () Bool (and .def_894 .def_895))
(define-fun .def_898 () Bool (and .def_896 .def_897))
(define-fun .def_900 () Bool (and .def_898 .def_899))
(define-fun .def_908 () Bool (and .def_900 .def_907))
(define-fun .def_910 () Bool (and .def_908 .def_909))
(define-fun .def_912 () Bool (and .def_910 .def_911))
(define-fun .def_641 () Bool (= call_First.flby call_First.First))
(define-fun .def_639 () Bool (= call_Sofar.flby call_Sofar.Sofar))
(define-fun .def_634 () Bool (and param_e_s3 param_e_s2))
(define-fun .def_631 () Bool (and param_e_s1 param_e_s2))
(define-fun .def_632 () Bool (and param_e_s1 .def_631))
(define-fun .def_633 () Bool (and param_e_s3 .def_632))
(define-fun .def_635 () Bool (or .def_633 .def_634))
(define-fun .def_636 () Bool (not .def_635))
(define-fun .def_637 () Bool (= call_excludes3.excludes .def_636))
(define-fun .def_629 () Bool (= call_synapse.flby call_synapse.mem_init_s))
(define-fun .def_627 () Bool (= call_synapse.flby4 call_synapse.dirty_s))
(define-fun .def_625 () Bool (= call_synapse.flby3 call_synapse.valid_s))
(define-fun .def_623 () Bool (= call_synapse.flby2 call_synapse.invalid_s))
(define-fun .def_619 () Bool (= call_synapse.ite16 call_synapse.ite17))
(define-fun .def_620 () Bool (or param_e_s2 .def_619))
(define-fun .def_616 () Bool (= call_synapse.ite14 call_synapse.ite17))
(define-fun .def_607 () Bool (not param_e_s2))
(define-fun .def_617 () Bool (or .def_607 .def_616))
(define-fun .def_613 () Bool (= call_synapse.ite10 call_synapse.ite11))
(define-fun .def_614 () Bool (or param_e_s2 .def_613))
(define-fun .def_610 () Bool (= call_synapse.ite8 call_synapse.ite11))
(define-fun .def_611 () Bool (or .def_607 .def_610))
(define-fun .def_606 () Bool (= call_synapse.ite5 call_synapse.ite2))
(define-fun .def_608 () Bool (or .def_606 .def_607))
(define-fun .def_602 () Bool (= call_synapse.ite4 call_synapse.ite5))
(define-fun .def_604 () Bool (or .def_602 param_e_s2))
(define-fun .def_609 () Bool (and .def_604 .def_608))
(define-fun .def_612 () Bool (and .def_609 .def_611))
(define-fun .def_615 () Bool (and .def_612 .def_614))
(define-fun .def_618 () Bool (and .def_615 .def_617))
(define-fun .def_621 () Bool (and .def_618 .def_620))
(define-fun .def_598 () Bool (= call_synapse.ite18 call_synapse.ite17))
(define-fun .def_599 () Bool (or param_e_s1 .def_598))
(define-fun .def_594 () Bool (= call_synapse.ite13 call_synapse.ite18))
(define-fun .def_581 () Bool (not param_e_s1))
(define-fun .def_595 () Bool (or .def_581 .def_594))
(define-fun .def_590 () Bool (= call_synapse.ite12 call_synapse.ite11))
(define-fun .def_591 () Bool (or param_e_s1 .def_590))
(define-fun .def_586 () Bool (= call_synapse.ite7 call_synapse.ite12))
(define-fun .def_587 () Bool (or .def_581 .def_586))
(define-fun .def_580 () Bool (= call_synapse.ite6 call_synapse.ite))
(define-fun .def_582 () Bool (or .def_580 .def_581))
(define-fun .def_576 () Bool (= call_synapse.ite6 call_synapse.ite5))
(define-fun .def_578 () Bool (or .def_576 param_e_s1))
(define-fun .def_583 () Bool (and .def_578 .def_582))
(define-fun .def_588 () Bool (and .def_583 .def_587))
(define-fun .def_592 () Bool (and .def_588 .def_591))
(define-fun .def_596 () Bool (and .def_592 .def_595))
(define-fun .def_600 () Bool (and .def_596 .def_599))
(define-fun .def_572 () Bool (= env call_Sofar.Sofar))
(define-fun .def_569 () Bool (= call_synapse.mem_init_s mem_init_s))
(define-fun .def_566 () Bool (= dirty_s call_synapse.dirty_s))
(define-fun .def_563 () Bool (= valid_s call_synapse.valid_s))
(define-fun .def_560 () Bool (= invalid_s call_synapse.invalid_s))
(define-fun .def_550 () Int (* (- 1) call_First.First))
(define-fun .def_551 () Int (+ invalid_s .def_550))
(define-fun .def_552 () Int (+ valid_s .def_551))
(define-fun .def_553 () Int (+ dirty_s .def_552))
(define-fun .def_554 () Bool (= .def_553 0))
(define-fun .def_539 () Bool (<= 2 dirty_s))
(define-fun .def_540 () Bool (not .def_539))
(define-fun .def_541 () Bool (and flby .def_540))
(define-fun .def_555 () Bool (and .def_541 .def_554))
(define-fun .def_536 () Bool (<= 1 valid_s))
(define-fun .def_537 () Bool (not .def_536))
(define-fun .def_533 () Bool (<= 1 dirty_s))
(define-fun .def_534 () Bool (not .def_533))
(define-fun .def_538 () Bool (or .def_534 .def_537))
(define-fun .def_556 () Bool (and .def_538 .def_555))
(define-fun .def_531 () Bool (not env))
(define-fun .def_557 () Bool (or .def_531 .def_556))
(define-fun .def_558 () Bool (= _OK_ .def_557))
(define-fun .def_561 () Bool (and .def_558 .def_560))
(define-fun .def_564 () Bool (and .def_561 .def_563))
(define-fun .def_567 () Bool (and .def_564 .def_566))
(define-fun .def_570 () Bool (and .def_567 .def_569))
(define-fun .def_573 () Bool (and .def_570 .def_572))
(define-fun .def_601 () Bool (and .def_573 .def_600))
(define-fun .def_622 () Bool (and .def_601 .def_621))
(define-fun .def_624 () Bool (and .def_622 .def_623))
(define-fun .def_626 () Bool (and .def_624 .def_625))
(define-fun .def_628 () Bool (and .def_626 .def_627))
(define-fun .def_630 () Bool (and .def_628 .def_629))
(define-fun .def_638 () Bool (and .def_630 .def_637))
(define-fun .def_640 () Bool (and .def_638 .def_639))
(define-fun .def_642 () Bool (and .def_640 .def_641))
(define-fun .def_913 () Bool (and .def_642 .def_912))
(define-fun .def_810 () Bool (= call_First.First call_First.flby.next))
(define-fun .def_802 () Bool (<= 0 param_init_invalid_s.next))
(define-fun .def_804 () Bool (and .def_802 call_excludes3.excludes.next))
(define-fun .def_805 () Bool (and call_Sofar.Sofar .def_804))
(define-fun .def_807 () Bool (= .def_805 call_Sofar.flby.next))
(define-fun .def_799 () Bool (= call_synapse.ite18.next call_synapse.flby4.next))
(define-fun .def_795 () Bool (= call_synapse.ite12.next call_synapse.flby3.next))
(define-fun .def_791 () Bool (= call_synapse.ite6.next call_synapse.flby2.next))
(define-fun .def_787 () Bool (= call_synapse.mem_init_s call_synapse.flby.next))
(define-fun .def_765 () Bool (<= 1 call_synapse.invalid_s))
(define-fun .def_783 () Bool (= call_synapse.garde_s3.next .def_765))
(define-fun .def_780 () Bool (= call_synapse.ite9.next 0))
(define-fun .def_729 () Bool (not call_synapse.garde_s3.next))
(define-fun .def_781 () Bool (or .def_729 .def_780))
(define-fun .def_778 () Bool (= call_synapse.ite15.next 1))
(define-fun .def_779 () Bool (or .def_729 .def_778))
(define-fun .def_782 () Bool (and .def_779 .def_781))
(define-fun .def_784 () Bool (and .def_782 .def_783))
(define-fun .def_774 () Bool (<= 1 call_synapse.valid_s))
(define-fun .def_775 () Bool (= call_synapse.garde_s2.next .def_774))
(define-fun .def_771 () Bool (= call_synapse.ite8.next 0))
(define-fun .def_714 () Bool (not call_synapse.garde_s2.next))
(define-fun .def_772 () Bool (or .def_714 .def_771))
(define-fun .def_769 () Bool (= call_synapse.ite14.next 1))
(define-fun .def_770 () Bool (or .def_714 .def_769))
(define-fun .def_773 () Bool (and .def_770 .def_772))
(define-fun .def_776 () Bool (and .def_773 .def_775))
(define-fun .def_766 () Bool (= call_synapse.garde_s1.next .def_765))
(define-fun .def_763 () Bool (= call_synapse.ite13.next 0))
(define-fun .def_701 () Bool (not call_synapse.garde_s1.next))
(define-fun .def_764 () Bool (or .def_701 .def_763))
(define-fun .def_767 () Bool (and .def_764 .def_766))
(define-fun .def_759 () Bool (= call_synapse.dirty_s call_synapse.ite15.next))
(define-fun .def_760 () Bool (or call_synapse.garde_s3.next .def_759))
(define-fun .def_756 () Bool (= call_synapse.dirty_s call_synapse.ite13.next))
(define-fun .def_757 () Bool (or call_synapse.garde_s1.next .def_756))
(define-fun .def_753 () Bool (= call_synapse.dirty_s call_synapse.ite14.next))
(define-fun .def_754 () Bool (or call_synapse.garde_s2.next .def_753))
(define-fun .def_758 () Bool (and .def_754 .def_757))
(define-fun .def_761 () Bool (and .def_758 .def_760))
(define-fun .def_748 () Bool (= call_synapse.valid_s call_synapse.ite9.next))
(define-fun .def_749 () Bool (or call_synapse.garde_s3.next .def_748))
(define-fun .def_745 () Bool (= call_synapse.valid_s call_synapse.ite8.next))
(define-fun .def_746 () Bool (or call_synapse.garde_s2.next .def_745))
(define-fun .def_739 () Int (* (- 1) call_synapse.ite7.next))
(define-fun .def_740 () Int (+ call_synapse.valid_s .def_739))
(define-fun .def_741 () Bool (= .def_740 (- 1)))
(define-fun .def_742 () Bool (or .def_701 .def_741))
(define-fun .def_737 () Bool (= call_synapse.valid_s call_synapse.ite7.next))
(define-fun .def_738 () Bool (or call_synapse.garde_s1.next .def_737))
(define-fun .def_743 () Bool (and .def_738 .def_742))
(define-fun .def_747 () Bool (and .def_743 .def_746))
(define-fun .def_750 () Bool (and .def_747 .def_749))
(define-fun .def_732 () Bool (= call_synapse.invalid_s call_synapse.ite3.next))
(define-fun .def_733 () Bool (or call_synapse.garde_s3.next .def_732))
(define-fun .def_720 () Int (* (- 1) call_synapse.ite3.next))
(define-fun .def_724 () Int (+ call_synapse.dirty_s .def_720))
(define-fun .def_725 () Int (+ call_synapse.valid_s .def_724))
(define-fun .def_726 () Int (+ call_synapse.invalid_s .def_725))
(define-fun .def_727 () Bool (= .def_726 1))
(define-fun .def_730 () Bool (or .def_727 .def_729))
(define-fun .def_717 () Bool (= call_synapse.invalid_s call_synapse.ite2.next))
(define-fun .def_718 () Bool (or call_synapse.garde_s2.next .def_717))
(define-fun .def_705 () Int (* (- 1) call_synapse.ite2.next))
(define-fun .def_709 () Int (+ call_synapse.dirty_s .def_705))
(define-fun .def_710 () Int (+ call_synapse.valid_s .def_709))
(define-fun .def_711 () Int (+ call_synapse.invalid_s .def_710))
(define-fun .def_712 () Bool (= .def_711 1))
(define-fun .def_715 () Bool (or .def_712 .def_714))
(define-fun .def_696 () Int (* (- 1) call_synapse.ite.next))
(define-fun .def_697 () Int (* (- 1) call_synapse.dirty_s))
(define-fun .def_698 () Int (+ .def_697 .def_696))
(define-fun .def_699 () Int (+ call_synapse.invalid_s .def_698))
(define-fun .def_700 () Bool (= .def_699 1))
(define-fun .def_702 () Bool (or .def_700 .def_701))
(define-fun .def_690 () Bool (= call_synapse.invalid_s call_synapse.ite.next))
(define-fun .def_692 () Bool (or .def_690 call_synapse.garde_s1.next))
(define-fun .def_703 () Bool (and .def_692 .def_702))
(define-fun .def_716 () Bool (and .def_703 .def_715))
(define-fun .def_719 () Bool (and .def_716 .def_718))
(define-fun .def_731 () Bool (and .def_719 .def_730))
(define-fun .def_734 () Bool (and .def_731 .def_733))
(define-fun .def_675 () Int (* (- 1) dirty_s.next))
(define-fun .def_672 () Int (* (- 1) valid_s.next))
(define-fun .def_680 () Int (+ .def_672 .def_675))
(define-fun .def_670 () Int (* (- 1) invalid_s.next))
(define-fun .def_681 () Int (+ .def_670 .def_680))
(define-fun .def_682 () Int (+ invalid_s .def_681))
(define-fun .def_683 () Int (+ valid_s .def_682))
(define-fun .def_684 () Int (+ dirty_s .def_683))
(define-fun .def_685 () Bool (= .def_684 0))
(define-fun .def_687 () Bool (= .def_685 flby.next))
(define-fun .def_666 () Bool (= call_synapse.dirty_s call_synapse.ite16.next))
(define-fun .def_667 () Bool (or param_e_s3.next .def_666))
(define-fun .def_663 () Bool (= call_synapse.ite15.next call_synapse.ite16.next))
(define-fun .def_650 () Bool (not param_e_s3.next))
(define-fun .def_664 () Bool (or .def_650 .def_663))
(define-fun .def_658 () Bool (= call_synapse.valid_s call_synapse.ite10.next))
(define-fun .def_659 () Bool (or param_e_s3.next .def_658))
(define-fun .def_655 () Bool (= call_synapse.ite9.next call_synapse.ite10.next))
(define-fun .def_656 () Bool (or .def_650 .def_655))
(define-fun .def_649 () Bool (= call_synapse.ite4.next call_synapse.ite3.next))
(define-fun .def_651 () Bool (or .def_649 .def_650))
(define-fun .def_645 () Bool (= call_synapse.invalid_s call_synapse.ite4.next))
(define-fun .def_647 () Bool (or .def_645 param_e_s3.next))
(define-fun .def_652 () Bool (and .def_647 .def_651))
(define-fun .def_657 () Bool (and .def_652 .def_656))
(define-fun .def_660 () Bool (and .def_657 .def_659))
(define-fun .def_665 () Bool (and .def_660 .def_664))
(define-fun .def_668 () Bool (and .def_665 .def_667))
(define-fun .def_688 () Bool (and .def_668 .def_687))
(define-fun .def_735 () Bool (and .def_688 .def_734))
(define-fun .def_751 () Bool (and .def_735 .def_750))
(define-fun .def_762 () Bool (and .def_751 .def_761))
(define-fun .def_768 () Bool (and .def_762 .def_767))
(define-fun .def_777 () Bool (and .def_768 .def_776))
(define-fun .def_785 () Bool (and .def_777 .def_784))
(define-fun .def_788 () Bool (and .def_785 .def_787))
(define-fun .def_792 () Bool (and .def_788 .def_791))
(define-fun .def_796 () Bool (and .def_792 .def_795))
(define-fun .def_800 () Bool (and .def_796 .def_799))
(define-fun .def_808 () Bool (and .def_800 .def_807))
(define-fun .def_811 () Bool (and .def_808 .def_810))
(define-fun .def_914 () Bool (and .def_811 .def_913))
(assert .def_914)
